[runlim] version:		1.10
[runlim] time limit:		311040000 seconds
[runlim] real time limit:	600 seconds
[runlim] space limit:		8000 MB
[runlim] argv[0]:		python3
[runlim] argv[1]:		-u
[runlim] argv[2]:		mip.py
[runlim] argv[3]:		graph01
[runlim] start:			Thu Dec 11 20:49:40 2025
[runlim] main pid:		110045
Building MIP model...
Build time: 6.37s
Solving MIP (minimizing number of labels)...
Version identifier: 22.1.1.0 | 2022-11-28 | 9160aff4d
CPXPARAM_Read_DataCheck                          1
Tried aggregator 2 times.
MIP Presolve eliminated 72589 rows and 0 columns.
MIP Presolve modified 9783 coefficients.
Aggregator did 3460 substitutions.
Reduced MIP has 9889 rows, 3508 columns, and 75952 nonzeros.
Reduced MIP has 3508 binaries, 0 generals, 0 SOSs, and 0 indicators.
Presolve time = 0.28 sec. (258.04 ticks)
Found incumbent of value 48.000000 after 0.35 sec. (352.92 ticks)
Probing time = 0.01 sec. (3.08 ticks)
Tried aggregator 1 time.
Detecting symmetries...
Reduced MIP has 9889 rows, 3508 columns, and 75952 nonzeros.
Reduced MIP has 3508 binaries, 0 generals, 0 SOSs, and 0 indicators.
Presolve time = 0.05 sec. (66.76 ticks)
Probing time = 0.01 sec. (3.08 ticks)
Clique table members: 9889.
MIP emphasis: balance optimality and feasibility.
MIP search method: dynamic search.
Parallel mode: deterministic, using up to 12 threads.
Root relaxation solution time = 0.45 sec. (351.19 ticks)

        Nodes                                         Cuts/
   Node  Left     Objective  IInf  Best Integer    Best Bound    ItCnt     Gap

*     0+    0                           48.0000        0.0000           100.00%
*     0+    0                           22.0000        0.0000           100.00%
      0     0       18.0000   209       22.0000       18.0000     3185   18.18%
*     0+    0                           18.0000       18.0000             0.00%
      0     0        cutoff             18.0000       18.0000     3185    0.00%
Elapsed time = 1.15 sec. (1041.36 ticks, tree = 0.01 MB, solutions = 3)

Root node processing (before b&c):
  Real time             =    1.15 sec. (1041.70 ticks)
Parallel b&c, 12 threads:
  Real time             =    0.00 sec. (0.00 ticks)
  Sync time (average)   =    0.00 sec.
  Wait time (average)   =    0.00 sec.
                          ------------
Total (root+branch&cut) =    1.15 sec. (1041.70 ticks)
Solve time: 1.16s
Solution :
{414, 652, 268, 30, 554, 792, 142, 380, 142, 380, 414, 652, 394, 156, 652, 414, 792, 554, 72, 310, 72, 310, 380, 142, 72, 310, 694, 456, 694, 456, 142, 380, 86, 324, 394, 156, 86, 324, 86, 324, 30, 268, 694, 456, 72, 310, 792, 554, 30, 268, 156, 394, 456, 694, 380, 142, 380, 142, 414, 652, 414, 652, 30, 268, 792, 554, 380, 142, 554, 792, 792, 554, 240, 478, 86, 324, 324, 86, 554, 792, 268, 30, 324, 86, 694, 456, 554, 792, 414, 652, 792, 554, 156, 394, 792, 554, 240, 478, 414, 652, 414, 652, 414, 652, 30, 268, 414, 652, 652, 414, 30, 268, 268, 30, 394, 156, 268, 30, 394, 156, 240, 478, 240, 478, 554, 792, 30, 268, 86, 324, 380, 142, 142, 380, 240, 478, 414, 652, 792, 554, 792, 554, 30, 268, 792, 554, 156, 394, 86, 324, 268, 30, 156, 394, 554, 792, 142, 380, 156, 394, 456, 694, 792, 554, 72, 310, 86, 324, 72, 310, 394, 156, 554, 792, 792, 554, 792, 554, 310, 72, 652, 414, 694, 456, 268, 30, 456, 694, 30, 268, 156, 394, 478, 240, 414, 652, 72, 310, 268, 30}
Number of labels used: 18
Total time: 7.54s
Memory used: 145.46 MB
[runlim] end:			Thu Dec 11 20:49:48 2025
[runlim] status:		ok
[runlim] result:		0
[runlim] children:		0
[runlim] real:			8.26 seconds
[runlim] time:			10.78 seconds
[runlim] space:			181.8 MB
[runlim] samples:		83
